p cnf 956 2452
51 -690 -691 0
-51 690 0
-51 691 0
52 -51 -3 0
-52 51 0
-52 3 0
53 -5 -4 0
-53 5 0
-53 4 0
54 -53 -6 0
-54 53 0
-54 6 0
55 -692 -693 0
-55 692 0
-55 693 0
56 -8 -7 0
-56 8 0
-56 7 0
57 -56 -694 0
-57 56 0
-57 694 0
58 -695 -55 0
-58 695 0
-58 55 0
59 -10 -7 0
-59 10 0
-59 7 0
60 -59 -696 0
-60 59 0
-60 696 0
61 -697 -58 0
-61 697 0
-61 58 0
62 -13 -698 0
-62 13 0
-62 698 0
63 -62 -14 0
-63 62 0
-63 14 0
64 -699 -61 0
-64 699 0
-64 61 0
65 -700 -701 0
-65 700 0
-65 701 0
66 -65 -702 0
-66 65 0
-66 702 0
67 -703 -64 0
-67 703 0
-67 64 0
68 -19 -18 0
-68 19 0
-68 18 0
69 -68 -694 0
-69 68 0
-69 694 0
70 -704 -67 0
-70 704 0
-70 67 0
71 -694 -8 0
-71 694 0
-71 8 0
72 -71 -20 0
-72 71 0
-72 20 0
73 -705 -70 0
-73 705 0
-73 70 0
74 -22 -21 0
-74 22 0
-74 21 0
75 -74 -23 0
-75 74 0
-75 23 0
76 -706 -73 0
-76 706 0
-76 73 0
77 -24 -691 0
-77 24 0
-77 691 0
78 -77 -707 0
-78 77 0
-78 707 0
79 -708 -76 0
-79 708 0
-79 76 0
80 -709 -701 0
-80 709 0
-80 701 0
81 -80 -26 0
-81 80 0
-81 26 0
82 -710 -79 0
-82 710 0
-82 79 0
83 -24 -1 0
-83 24 0
-83 1 0
84 -83 -3 0
-84 83 0
-84 3 0
85 -711 -82 0
-85 711 0
-85 82 0
86 -28 -27 0
-86 28 0
-86 27 0
87 -86 -29 0
-87 86 0
-87 29 0
88 -712 -85 0
-88 712 0
-88 85 0
89 -30 -713 0
-89 30 0
-89 713 0
90 -89 -714 0
-90 89 0
-90 714 0
91 -715 -88 0
-91 715 0
-91 88 0
92 -716 -1 0
-92 716 0
-92 1 0
93 -92 -32 0
-93 92 0
-93 32 0
94 -717 -91 0
-94 717 0
-94 91 0
95 -718 -719 0
-95 718 0
-95 719 0
96 -95 -716 0
-96 95 0
-96 716 0
97 -720 -94 0
-97 720 0
-97 94 0
98 -721 -2 0
-98 721 0
-98 2 0
99 -98 -707 0
-99 98 0
-99 707 0
100 -722 -97 0
-100 722 0
-100 97 0
101 -723 -719 0
-101 723 0
-101 719 0
102 -101 -724 0
-102 101 0
-102 724 0
103 -725 -100 0
-103 725 0
-103 100 0
104 -726 -727 0
-104 726 0
-104 727 0
105 -104 -11 0
-105 104 0
-105 11 0
106 -728 -103 0
-106 728 0
-106 103 0
107 -719 -13 0
-107 719 0
-107 13 0
108 -107 -36 0
-108 107 0
-108 36 0
109 -729 -106 0
-109 729 0
-109 106 0
110 -37 -9 0
-110 37 0
-110 9 0
111 -110 -28 0
-111 110 0
-111 28 0
112 -730 -109 0
-112 730 0
-112 109 0
113 -38 -731 0
-113 38 0
-113 731 0
114 -113 -732 0
-114 113 0
-114 732 0
115 -733 -112 0
-115 733 0
-115 112 0
116 -732 -35 0
-116 732 0
-116 35 0
117 -116 -734 0
-117 116 0
-117 734 0
118 -735 -115 0
-118 735 0
-118 115 0
119 -41 -736 0
-119 41 0
-119 736 0
120 -119 -716 0
-120 119 0
-120 716 0
121 -737 -118 0
-121 737 0
-121 118 0
122 -29 -721 0
-122 29 0
-122 721 0
123 -122 -41 0
-123 122 0
-123 41 0
124 -738 -121 0
-124 738 0
-124 121 0
125 -739 -40 0
-125 739 0
-125 40 0
126 -125 -23 0
-126 125 0
-126 23 0
127 -740 -124 0
-127 740 0
-127 124 0
128 -741 -742 0
-128 741 0
-128 742 0
129 -128 -19 0
-129 128 0
-129 19 0
130 -743 -127 0
-130 743 0
-130 127 0
131 -744 -690 0
-131 744 0
-131 690 0
132 -131 -745 0
-132 131 0
-132 745 0
133 -746 -130 0
-133 746 0
-133 130 0
134 -26 -22 0
-134 26 0
-134 22 0
135 -134 -44 0
-135 134 0
-135 44 0
136 -747 -133 0
-136 747 0
-136 133 0
137 -748 -702 0
-137 748 0
-137 702 0
138 -137 -716 0
-138 137 0
-138 716 0
139 -749 -136 0
-139 749 0
-139 136 0
140 -21 -4 0
-140 21 0
-140 4 0
141 -140 -750 0
-141 140 0
-141 750 0
142 -751 -139 0
-142 751 0
-142 139 0
143 -46 -752 0
-143 46 0
-143 752 0
144 -143 -28 0
-144 143 0
-144 28 0
145 -753 -142 0
-145 753 0
-145 142 0
146 -35 -34 0
-146 35 0
-146 34 0
147 -146 -14 0
-147 146 0
-147 14 0
148 -754 -145 0
-148 754 0
-148 145 0
149 -698 -10 0
-149 698 0
-149 10 0
150 -149 -31 0
-150 149 0
-150 31 0
151 -755 -148 0
-151 755 0
-151 148 0
152 -107 -756 0
-152 107 0
-152 756 0
153 -757 -151 0
-153 757 0
-153 151 0
154 -718 -713 0
-154 718 0
-154 713 0
155 -154 -47 0
-155 154 0
-155 47 0
156 -758 -153 0
-156 758 0
-156 153 0
157 -35 -718 0
-157 35 0
-157 718 0
158 -157 -759 0
-158 157 0
-158 759 0
159 -760 -156 0
-159 760 0
-159 156 0
160 -40 -5 0
-160 40 0
-160 5 0
161 -160 -732 0
-161 160 0
-161 732 0
162 -761 -159 0
-162 761 0
-162 159 0
163 -37 -18 0
-163 37 0
-163 18 0
164 -163 -44 0
-164 163 0
-164 44 0
165 -762 -162 0
-165 762 0
-165 162 0
166 -736 -763 0
-166 736 0
-166 763 0
167 -166 -721 0
-167 166 0
-167 721 0
168 -764 -165 0
-168 764 0
-168 165 0
169 -24 -765 0
-169 24 0
-169 765 0
170 -169 -696 0
-170 169 0
-170 696 0
171 -766 -168 0
-171 766 0
-171 168 0
172 -24 -6 0
-172 24 0
-172 6 0
173 -172 -11 0
-173 172 0
-173 11 0
174 -767 -171 0
-174 767 0
-174 171 0
175 -741 -721 0
-175 741 0
-175 721 0
176 -175 -768 0
-176 175 0
-176 768 0
177 -769 -174 0
-177 769 0
-177 174 0
178 -701 -11 0
-178 701 0
-178 11 0
179 -178 -23 0
-179 178 0
-179 23 0
180 -770 -177 0
-180 770 0
-180 177 0
181 -771 -6 0
-181 771 0
-181 6 0
182 -181 -17 0
-182 181 0
-182 17 0
183 -772 -180 0
-183 772 0
-183 180 0
184 -20 -702 0
-184 20 0
-184 702 0
185 -184 -32 0
-185 184 0
-185 32 0
186 -773 -183 0
-186 773 0
-186 183 0
187 -48 -694 0
-187 48 0
-187 694 0
188 -187 -38 0
-188 187 0
-188 38 0
189 -774 -186 0
-189 774 0
-189 186 0
190 -775 -45 0
-190 775 0
-190 45 0
191 -190 -732 0
-191 190 0
-191 732 0
192 -776 -189 0
-192 776 0
-192 189 0
193 -43 -752 0
-193 43 0
-193 752 0
194 -193 -26 0
-194 193 0
-194 26 0
195 -777 -192 0
-195 777 0
-195 192 0
196 -698 -696 0
-196 698 0
-196 696 0
197 -196 -756 0
-197 196 0
-197 756 0
198 -778 -195 0
-198 778 0
-198 195 0
199 -775 -48 0
-199 775 0
-199 48 0
200 -199 -8 0
-200 199 0
-200 8 0
201 -779 -198 0
-201 779 0
-201 198 0
202 -13 -694 0
-202 13 0
-202 694 0
203 -202 -700 0
-203 202 0
-203 700 0
204 -780 -201 0
-204 780 0
-204 201 0
205 -30 -701 0
-205 30 0
-205 701 0
206 -205 -2 0
-206 205 0
-206 2 0
207 -781 -204 0
-207 781 0
-207 204 0
208 -782 -701 0
-208 782 0
-208 701 0
209 -208 -25 0
-209 208 0
-209 25 0
210 -783 -207 0
-210 783 0
-210 207 0
211 -784 -27 0
-211 784 0
-211 27 0
212 -211 -745 0
-212 211 0
-212 745 0
213 -785 -210 0
-213 785 0
-213 210 0
214 -21 -698 0
-214 21 0
-214 698 0
215 -214 -713 0
-215 214 0
-215 713 0
216 -786 -213 0
-216 786 0
-216 213 0
217 -775 -709 0
-217 775 0
-217 709 0
218 -217 -756 0
-218 217 0
-218 756 0
219 -787 -216 0
-219 787 0
-219 216 0
220 -713 -765 0
-220 713 0
-220 765 0
221 -220 -714 0
-221 220 0
-221 714 0
222 -788 -219 0
-222 788 0
-222 219 0
223 -721 -18 0
-223 721 0
-223 18 0
224 -223 -35 0
-224 223 0
-224 35 0
225 -789 -222 0
-225 789 0
-225 222 0
226 -37 -28 0
-226 37 0
-226 28 0
227 -226 -700 0
-227 226 0
-227 700 0
228 -790 -225 0
-228 790 0
-228 225 0
229 -49 -48 0
-229 49 0
-229 48 0
230 -229 -739 0
-230 229 0
-230 739 0
231 -791 -228 0
-231 791 0
-231 228 0
232 -46 -765 0
-232 46 0
-232 765 0
233 -232 -759 0
-233 232 0
-233 759 0
234 -792 -231 0
-234 792 0
-234 231 0
235 -42 -713 0
-235 42 0
-235 713 0
236 -235 -756 0
-236 235 0
-236 756 0
237 -793 -234 0
-237 793 0
-237 234 0
238 -48 -794 0
-238 48 0
-238 794 0
239 -238 -38 0
-239 238 0
-239 38 0
240 -795 -237 0
-240 795 0
-240 237 0
241 -719 -5 0
-241 719 0
-241 5 0
242 -241 -796 0
-242 241 0
-242 796 0
243 -797 -240 0
-243 797 0
-243 240 0
244 -217 -796 0
-244 217 0
-244 796 0
245 -798 -243 0
-245 798 0
-245 243 0
246 -46 -31 0
-246 46 0
-246 31 0
247 -246 -39 0
-247 246 0
-247 39 0
248 -799 -245 0
-248 799 0
-248 245 0
249 -33 -690 0
-249 33 0
-249 690 0
250 -249 -724 0
-250 249 0
-250 724 0
251 -800 -248 0
-251 800 0
-251 248 0
252 -726 -742 0
-252 726 0
-252 742 0
253 -252 -6 0
-253 252 0
-253 6 0
254 -801 -251 0
-254 801 0
-254 251 0
255 -46 -709 0
-255 46 0
-255 709 0
256 -255 -768 0
-256 255 0
-256 768 0
257 -802 -254 0
-257 802 0
-257 254 0
258 -45 -10 0
-258 45 0
-258 10 0
259 -258 -716 0
-259 258 0
-259 716 0
260 -803 -257 0
-260 803 0
-260 257 0
261 -804 -805 0
-261 804 0
-261 805 0
262 -261 -748 0
-262 261 0
-262 748 0
263 -806 -260 0
-263 806 0
-263 260 0
264 -696 -759 0
-264 696 0
-264 759 0
265 -264 -702 0
-265 264 0
-265 702 0
266 -807 -263 0
-266 807 0
-266 263 0
267 -16 -15 0
-267 16 0
-267 15 0
268 -267 -750 0
-268 267 0
-268 750 0
269 -808 -266 0
-269 808 0
-269 266 0
270 -22 -727 0
-270 22 0
-270 727 0
271 -270 -29 0
-271 270 0
-271 29 0
272 -809 -269 0
-272 809 0
-272 269 0
273 -31 -727 0
-273 31 0
-273 727 0
274 -273 -32 0
-274 273 0
-274 32 0
275 -810 -272 0
-275 810 0
-275 272 0
276 -143 -47 0
-276 143 0
-276 47 0
277 -811 -275 0
-277 811 0
-277 275 0
278 -794 -6 0
-278 794 0
-278 6 0
279 -278 -784 0
-279 278 0
-279 784 0
280 -812 -277 0
-280 812 0
-280 277 0
281 -8 -1 0
-281 8 0
-281 1 0
282 -281 -698 0
-282 281 0
-282 698 0
283 -813 -280 0
-283 813 0
-283 280 0
284 -814 -765 0
-284 814 0
-284 765 0
285 -284 -700 0
-285 284 0
-285 700 0
286 -815 -283 0
-286 815 0
-286 283 0
287 -37 -691 0
-287 37 0
-287 691 0
288 -287 -3 0
-288 287 0
-288 3 0
289 -816 -286 0
-289 816 0
-289 286 0
290 -18 -771 0
-290 18 0
-290 771 0
291 -290 -698 0
-291 290 0
-291 698 0
292 -817 -289 0
-292 817 0
-292 289 0
293 -782 -19 0
-293 782 0
-293 19 0
294 -293 -726 0
-294 293 0
-294 726 0
295 -818 -292 0
-295 818 0
-295 292 0
296 -698 -7 0
-296 698 0
-296 7 0
297 -296 -784 0
-297 296 0
-297 784 0
298 -819 -295 0
-298 819 0
-298 295 0
299 -731 -709 0
-299 731 0
-299 709 0
300 -299 -3 0
-300 299 0
-300 3 0
301 -820 -298 0
-301 820 0
-301 298 0
302 -821 -26 0
-302 821 0
-302 26 0
303 -302 -707 0
-303 302 0
-303 707 0
304 -822 -301 0
-304 822 0
-304 301 0
305 -782 -759 0
-305 782 0
-305 759 0
306 -305 -784 0
-306 305 0
-306 784 0
307 -823 -304 0
-307 823 0
-307 304 0
308 -33 -694 0
-308 33 0
-308 694 0
309 -308 -768 0
-309 308 0
-309 768 0
310 -824 -307 0
-310 824 0
-310 307 0
311 -50 -768 0
-311 50 0
-311 768 0
312 -311 -734 0
-312 311 0
-312 734 0
313 -825 -310 0
-313 825 0
-313 310 0
314 -714 -709 0
-314 714 0
-314 709 0
315 -314 -734 0
-315 314 0
-315 734 0
316 -826 -313 0
-316 826 0
-316 313 0
317 -49 -782 0
-317 49 0
-317 782 0
318 -317 -32 0
-318 317 0
-318 32 0
319 -827 -316 0
-319 827 0
-319 316 0
320 -27 -752 0
-320 27 0
-320 752 0
321 -320 -22 0
-321 320 0
-321 22 0
322 -828 -319 0
-322 828 0
-322 319 0
323 -709 -15 0
-323 709 0
-323 15 0
324 -323 -718 0
-324 323 0
-324 718 0
325 -829 -322 0
-325 829 0
-325 322 0
326 -33 -22 0
-326 33 0
-326 22 0
327 -326 -6 0
-327 326 0
-327 6 0
328 -830 -325 0
-328 830 0
-328 325 0
329 -35 -6 0
-329 35 0
-329 6 0
330 -329 -716 0
-330 329 0
-330 716 0
331 -831 -328 0
-331 831 0
-331 328 0
332 -12 -4 0
-332 12 0
-332 4 0
333 -332 -31 0
-333 332 0
-333 31 0
334 -832 -331 0
-334 832 0
-334 331 0
335 -202 -26 0
-335 202 0
-335 26 0
336 -833 -334 0
-336 833 0
-336 334 0
337 -727 -690 0
-337 727 0
-337 690 0
338 -337 -748 0
-338 337 0
-338 748 0
339 -834 -336 0
-339 834 0
-339 336 0
340 -46 -713 0
-340 46 0
-340 713 0
341 -340 -41 0
-341 340 0
-341 41 0
342 -835 -339 0
-342 835 0
-342 339 0
343 -41 -719 0
-343 41 0
-343 719 0
344 -343 -39 0
-344 343 0
-344 39 0
345 -836 -342 0
-345 836 0
-345 342 0
346 -7 -763 0
-346 7 0
-346 763 0
347 -346 -26 0
-347 346 0
-347 26 0
348 -837 -345 0
-348 837 0
-348 345 0
349 -804 -30 0
-349 804 0
-349 30 0
350 -349 -2 0
-350 349 0
-350 2 0
351 -838 -348 0
-351 838 0
-351 348 0
352 -719 -11 0
-352 719 0
-352 11 0
353 -352 -702 0
-353 352 0
-353 702 0
354 -839 -351 0
-354 839 0
-354 351 0
355 -804 -840 0
-355 804 0
-355 840 0
356 -355 -756 0
-356 355 0
-356 756 0
357 -841 -354 0
-357 841 0
-357 354 0
358 -768 -5 0
-358 768 0
-358 5 0
359 -358 -47 0
-359 358 0
-359 47 0
360 -842 -357 0
-360 842 0
-360 357 0
361 -10 -794 0
-361 10 0
-361 794 0
362 -361 -724 0
-362 361 0
-362 724 0
363 -843 -360 0
-363 843 0
-363 360 0
364 -718 -709 0
-364 718 0
-364 709 0
365 -364 -716 0
-365 364 0
-365 716 0
366 -844 -363 0
-366 844 0
-366 363 0
367 -45 -845 0
-367 45 0
-367 845 0
368 -367 -44 0
-368 367 0
-368 44 0
369 -846 -366 0
-369 846 0
-369 366 0
370 -840 -718 0
-370 840 0
-370 718 0
371 -370 -25 0
-371 370 0
-371 25 0
372 -847 -369 0
-372 847 0
-372 369 0
373 -775 -46 0
-373 775 0
-373 46 0
374 -373 -45 0
-374 373 0
-374 45 0
375 -848 -372 0
-375 848 0
-375 372 0
376 -15 -698 0
-376 15 0
-376 698 0
377 -376 -713 0
-377 376 0
-377 713 0
378 -849 -375 0
-378 849 0
-378 375 0
379 -27 -17 0
-379 27 0
-379 17 0
380 -379 -41 0
-380 379 0
-380 41 0
381 -850 -378 0
-381 850 0
-381 378 0
382 -13 -9 0
-382 13 0
-382 9 0
383 -382 -38 0
-383 382 0
-383 38 0
384 -851 -381 0
-384 851 0
-384 381 0
385 -741 -771 0
-385 741 0
-385 771 0
386 -385 -36 0
-386 385 0
-386 36 0
387 -852 -384 0
-387 852 0
-387 384 0
388 -37 -713 0
-388 37 0
-388 713 0
389 -388 -732 0
-389 388 0
-389 732 0
390 -853 -387 0
-390 853 0
-390 387 0
391 -782 -8 0
-391 782 0
-391 8 0
392 -391 -696 0
-392 391 0
-392 696 0
393 -854 -390 0
-393 854 0
-393 390 0
394 -46 -698 0
-394 46 0
-394 698 0
395 -394 -41 0
-395 394 0
-395 41 0
396 -855 -393 0
-396 855 0
-396 393 0
397 -840 -15 0
-397 840 0
-397 15 0
398 -397 -27 0
-398 397 0
-398 27 0
399 -856 -396 0
-399 856 0
-399 396 0
400 -775 -724 0
-400 775 0
-400 724 0
401 -400 -734 0
-401 400 0
-401 734 0
402 -857 -399 0
-402 857 0
-402 399 0
403 -9 -5 0
-403 9 0
-403 5 0
404 -403 -744 0
-404 403 0
-404 744 0
405 -858 -402 0
-405 858 0
-405 402 0
406 -35 -20 0
-406 35 0
-406 20 0
407 -406 -3 0
-407 406 0
-407 3 0
408 -859 -405 0
-408 859 0
-408 405 0
409 -701 -698 0
-409 701 0
-409 698 0
410 -409 -731 0
-410 409 0
-410 731 0
411 -860 -408 0
-411 860 0
-411 408 0
412 -694 -690 0
-412 694 0
-412 690 0
413 -412 -28 0
-413 412 0
-413 28 0
414 -861 -411 0
-414 861 0
-414 411 0
415 -24 -700 0
-415 24 0
-415 700 0
416 -415 -25 0
-416 415 0
-416 25 0
417 -862 -414 0
-417 862 0
-417 414 0
418 -238 -32 0
-418 238 0
-418 32 0
419 -863 -417 0
-419 863 0
-419 417 0
420 -22 -694 0
-420 22 0
-420 694 0
421 -420 -726 0
-421 420 0
-421 726 0
422 -864 -419 0
-422 864 0
-422 419 0
423 -742 -719 0
-423 742 0
-423 719 0
424 -423 -768 0
-424 423 0
-424 768 0
425 -865 -422 0
-425 865 0
-425 422 0
426 -37 -16 0
-426 37 0
-426 16 0
427 -426 -845 0
-427 426 0
-427 845 0
428 -866 -425 0
-428 866 0
-428 425 0
429 -35 -794 0
-429 35 0
-429 794 0
430 -429 -716 0
-430 429 0
-430 716 0
431 -867 -428 0
-431 867 0
-431 428 0
432 -33 -3 0
-432 33 0
-432 3 0
433 -432 -39 0
-433 432 0
-433 39 0
434 -868 -431 0
-434 868 0
-434 431 0
435 -741 -2 0
-435 741 0
-435 2 0
436 -435 -12 0
-436 435 0
-436 12 0
437 -869 -434 0
-437 869 0
-437 434 0
438 -732 -742 0
-438 732 0
-438 742 0
439 -438 -784 0
-439 438 0
-439 784 0
440 -870 -437 0
-440 870 0
-440 437 0
441 -739 -14 0
-441 739 0
-441 14 0
442 -441 -716 0
-442 441 0
-442 716 0
443 -871 -440 0
-443 871 0
-443 440 0
444 -28 -15 0
-444 28 0
-444 15 0
445 -444 -6 0
-445 444 0
-445 6 0
446 -872 -443 0
-446 872 0
-446 443 0
447 -10 -2 0
-447 10 0
-447 2 0
448 -447 -718 0
-448 447 0
-448 718 0
449 -873 -446 0
-449 873 0
-449 446 0
450 -736 -721 0
-450 736 0
-450 721 0
451 -450 -745 0
-451 450 0
-451 745 0
452 -874 -449 0
-452 874 0
-452 449 0
453 -701 -691 0
-453 701 0
-453 691 0
454 -453 -21 0
-454 453 0
-454 21 0
455 -875 -452 0
-455 875 0
-455 452 0
456 -40 -876 0
-456 40 0
-456 876 0
457 -456 -759 0
-457 456 0
-457 759 0
458 -877 -455 0
-458 877 0
-458 455 0
459 -739 -700 0
-459 739 0
-459 700 0
460 -459 -707 0
-460 459 0
-460 707 0
461 -878 -458 0
-461 878 0
-461 458 0
462 -42 -782 0
-462 42 0
-462 782 0
463 -462 -732 0
-463 462 0
-463 732 0
464 -879 -461 0
-464 879 0
-464 461 0
465 -33 -719 0
-465 33 0
-465 719 0
466 -465 -745 0
-466 465 0
-466 745 0
467 -880 -464 0
-467 880 0
-467 464 0
468 -37 -742 0
-468 37 0
-468 742 0
469 -468 -29 0
-469 468 0
-469 29 0
470 -881 -467 0
-470 881 0
-470 467 0
471 -7 -6 0
-471 7 0
-471 6 0
472 -471 -744 0
-472 471 0
-472 744 0
473 -882 -470 0
-473 882 0
-473 470 0
474 -13 -2 0
-474 13 0
-474 2 0
475 -474 -17 0
-475 474 0
-475 17 0
476 -883 -473 0
-476 883 0
-476 473 0
477 -700 -5 0
-477 700 0
-477 5 0
478 -477 -39 0
-478 477 0
-478 39 0
479 -884 -476 0
-479 884 0
-479 476 0
480 -736 -698 0
-480 736 0
-480 698 0
481 -480 -756 0
-481 480 0
-481 756 0
482 -885 -479 0
-482 885 0
-482 479 0
483 -86 -17 0
-483 86 0
-483 17 0
484 -886 -482 0
-484 886 0
-484 482 0
485 -821 -726 0
-485 821 0
-485 726 0
486 -485 -42 0
-486 485 0
-486 42 0
487 -887 -484 0
-487 887 0
-487 484 0
488 -768 -10 0
-488 768 0
-488 10 0
489 -488 -23 0
-489 488 0
-489 23 0
490 -888 -487 0
-490 888 0
-490 487 0
491 -27 -721 0
-491 27 0
-491 721 0
492 -491 -47 0
-492 491 0
-492 47 0
493 -889 -490 0
-493 889 0
-493 490 0
494 -40 -752 0
-494 40 0
-494 752 0
495 -494 -21 0
-495 494 0
-495 21 0
496 -890 -493 0
-496 890 0
-496 493 0
497 -713 -694 0
-497 713 0
-497 694 0
498 -497 -745 0
-498 497 0
-498 745 0
499 -891 -496 0
-499 891 0
-499 496 0
500 -8 -6 0
-500 8 0
-500 6 0
501 -500 -39 0
-501 500 0
-501 39 0
502 -892 -499 0
-502 892 0
-502 499 0
503 -35 -701 0
-503 35 0
-503 701 0
504 -503 -31 0
-504 503 0
-504 31 0
505 -893 -502 0
-505 893 0
-505 502 0
506 -765 -752 0
-506 765 0
-506 752 0
507 -506 -756 0
-507 506 0
-507 756 0
508 -894 -505 0
-508 894 0
-508 505 0
509 -840 -40 0
-509 840 0
-509 40 0
510 -509 -22 0
-510 509 0
-510 22 0
511 -895 -508 0
-511 895 0
-511 508 0
512 -845 -28 0
-512 845 0
-512 28 0
513 -512 -784 0
-513 512 0
-513 784 0
514 -896 -511 0
-514 896 0
-514 511 0
515 -805 -24 0
-515 805 0
-515 24 0
516 -515 -23 0
-516 515 0
-516 23 0
517 -897 -514 0
-517 897 0
-517 514 0
518 -742 -17 0
-518 742 0
-518 17 0
519 -518 -716 0
-519 518 0
-519 716 0
520 -898 -517 0
-520 898 0
-520 517 0
521 -719 -690 0
-521 719 0
-521 690 0
522 -521 -727 0
-522 521 0
-522 727 0
523 -899 -520 0
-523 899 0
-523 520 0
524 -744 -17 0
-524 744 0
-524 17 0
525 -524 -745 0
-525 524 0
-525 745 0
526 -900 -523 0
-526 900 0
-526 523 0
527 -35 -694 0
-527 35 0
-527 694 0
528 -527 -739 0
-528 527 0
-528 739 0
529 -901 -526 0
-529 901 0
-529 526 0
530 -16 -694 0
-530 16 0
-530 694 0
531 -530 -716 0
-531 530 0
-531 716 0
532 -902 -529 0
-532 902 0
-532 529 0
533 -29 -794 0
-533 29 0
-533 794 0
534 -533 -38 0
-534 533 0
-534 38 0
535 -903 -532 0
-535 903 0
-535 532 0
536 -49 -36 0
-536 49 0
-536 36 0
537 -536 -745 0
-537 536 0
-537 745 0
538 -904 -535 0
-538 904 0
-538 535 0
539 -20 -4 0
-539 20 0
-539 4 0
540 -539 -6 0
-540 539 0
-540 6 0
541 -905 -538 0
-541 905 0
-541 538 0
542 -840 -2 0
-542 840 0
-542 2 0
543 -542 -768 0
-543 542 0
-543 768 0
544 -906 -541 0
-544 906 0
-544 541 0
545 -721 -694 0
-545 721 0
-545 694 0
546 -545 -33 0
-546 545 0
-546 33 0
547 -907 -544 0
-547 907 0
-547 544 0
548 -33 -19 0
-548 33 0
-548 19 0
549 -548 -739 0
-549 548 0
-549 739 0
550 -908 -547 0
-550 908 0
-550 547 0
551 -50 -805 0
-551 50 0
-551 805 0
552 -551 -784 0
-552 551 0
-552 784 0
553 -909 -550 0
-553 909 0
-553 550 0
554 -50 -845 0
-554 50 0
-554 845 0
555 -554 -45 0
-555 554 0
-555 45 0
556 -910 -553 0
-556 910 0
-556 553 0
557 -24 -771 0
-557 24 0
-557 771 0
558 -557 -19 0
-558 557 0
-558 19 0
559 -911 -556 0
-559 911 0
-559 556 0
560 -293 -784 0
-560 293 0
-560 784 0
561 -912 -559 0
-561 912 0
-561 559 0
562 -696 -2 0
-562 696 0
-562 2 0
563 -562 -750 0
-563 562 0
-563 750 0
564 -913 -561 0
-564 913 0
-564 561 0
565 -42 -20 0
-565 42 0
-565 20 0
566 -565 -41 0
-566 565 0
-566 41 0
567 -914 -564 0
-567 914 0
-567 564 0
568 -744 -2 0
-568 744 0
-568 2 0
569 -568 -750 0
-569 568 0
-569 750 0
570 -915 -567 0
-570 915 0
-570 567 0
571 -16 -696 0
-571 16 0
-571 696 0
572 -571 -796 0
-572 571 0
-572 796 0
573 -916 -570 0
-573 916 0
-573 570 0
574 -719 -701 0
-574 719 0
-574 701 0
575 -574 -41 0
-575 574 0
-575 41 0
576 -917 -573 0
-576 917 0
-576 573 0
577 -24 -701 0
-577 24 0
-577 701 0
578 -577 -723 0
-578 577 0
-578 723 0
579 -918 -576 0
-579 918 0
-579 576 0
580 -10 -694 0
-580 10 0
-580 694 0
581 -580 -845 0
-581 580 0
-581 845 0
582 -919 -579 0
-582 919 0
-582 579 0
583 -40 -782 0
-583 40 0
-583 782 0
584 -583 -804 0
-584 583 0
-584 804 0
585 -920 -582 0
-585 920 0
-585 582 0
586 -814 -709 0
-586 814 0
-586 709 0
587 -586 -13 0
-587 586 0
-587 13 0
588 -921 -585 0
-588 921 0
-588 585 0
589 -748 -21 0
-589 748 0
-589 21 0
590 -589 -750 0
-590 589 0
-590 750 0
591 -922 -588 0
-591 922 0
-591 588 0
592 -771 -1 0
-592 771 0
-592 1 0
593 -592 -34 0
-593 592 0
-593 34 0
594 -923 -591 0
-594 923 0
-594 591 0
595 -40 -8 0
-595 40 0
-595 8 0
596 -595 -28 0
-596 595 0
-596 28 0
597 -924 -594 0
-597 924 0
-597 594 0
598 -41 -30 0
-598 41 0
-598 30 0
599 -598 -44 0
-599 598 0
-599 44 0
600 -925 -597 0
-600 925 0
-600 597 0
601 -876 -763 0
-601 876 0
-601 763 0
602 -601 -713 0
-602 601 0
-602 713 0
603 -926 -600 0
-603 926 0
-603 600 0
604 -750 -31 0
-604 750 0
-604 31 0
605 -604 -47 0
-605 604 0
-605 47 0
606 -927 -603 0
-606 927 0
-606 603 0
607 -37 -35 0
-607 37 0
-607 35 0
608 -607 -41 0
-608 607 0
-608 41 0
609 -928 -606 0
-609 928 0
-609 606 0
610 -48 -698 0
-610 48 0
-610 698 0
611 -610 -6 0
-611 610 0
-611 6 0
612 -929 -609 0
-612 929 0
-612 609 0
613 -11 -7 0
-613 11 0
-613 7 0
614 -613 -25 0
-614 613 0
-614 25 0
615 -930 -612 0
-615 930 0
-615 612 0
616 -3 -2 0
-616 3 0
-616 2 0
617 -616 -716 0
-617 616 0
-617 716 0
618 -931 -615 0
-618 931 0
-618 615 0
619 -805 -698 0
-619 805 0
-619 698 0
620 -619 -724 0
-620 619 0
-620 724 0
621 -932 -618 0
-621 932 0
-621 618 0
622 -840 -759 0
-622 840 0
-622 759 0
623 -622 -38 0
-623 622 0
-623 38 0
624 -933 -621 0
-624 933 0
-624 621 0
625 -42 -40 0
-625 42 0
-625 40 0
626 -625 -23 0
-626 625 0
-626 23 0
627 -934 -624 0
-627 934 0
-627 624 0
628 -36 -714 0
-628 36 0
-628 714 0
629 -628 -45 0
-629 628 0
-629 45 0
630 -935 -627 0
-630 935 0
-630 627 0
631 -714 -24 0
-631 714 0
-631 24 0
632 -631 -32 0
-632 631 0
-632 32 0
633 -936 -630 0
-633 936 0
-633 630 0
634 -74 -26 0
-634 74 0
-634 26 0
635 -937 -633 0
-635 937 0
-635 633 0
636 -771 -691 0
-636 771 0
-636 691 0
637 -636 -34 0
-637 636 0
-637 34 0
638 -938 -635 0
-638 938 0
-638 635 0
639 -290 -44 0
-639 290 0
-639 44 0
640 -939 -638 0
-640 939 0
-640 638 0
641 -46 -727 0
-641 46 0
-641 727 0
642 -641 -702 0
-642 641 0
-642 702 0
643 -940 -640 0
-643 940 0
-643 640 0
644 -29 -771 0
-644 29 0
-644 771 0
645 -644 -700 0
-645 644 0
-645 700 0
646 -941 -643 0
-646 941 0
-646 643 0
647 -29 -24 0
-647 29 0
-647 24 0
648 -647 -14 0
-648 647 0
-648 14 0
649 -942 -646 0
-649 942 0
-649 646 0
650 -601 -11 0
-650 601 0
-650 11 0
651 -943 -649 0
-651 943 0
-651 649 0
652 -719 -794 0
-652 719 0
-652 794 0
653 -652 -38 0
-653 652 0
-653 38 0
654 -944 -651 0
-654 944 0
-654 651 0
655 -49 -43 0
-655 49 0
-655 43 0
656 -655 -15 0
-656 655 0
-656 15 0
657 -945 -654 0
-657 945 0
-657 654 0
658 -43 -718 0
-658 43 0
-658 718 0
659 -658 -29 0
-659 658 0
-659 29 0
660 -946 -657 0
-660 946 0
-660 657 0
661 -48 -6 0
-661 48 0
-661 6 0
662 -661 -41 0
-662 661 0
-662 41 0
663 -947 -660 0
-663 947 0
-663 660 0
664 -775 -24 0
-664 775 0
-664 24 0
665 -664 -768 0
-665 664 0
-665 768 0
666 -948 -663 0
-666 948 0
-666 663 0
667 -9 -724 0
-667 9 0
-667 724 0
668 -667 -41 0
-668 667 0
-668 41 0
669 -949 -666 0
-669 949 0
-669 666 0
670 -317 -45 0
-670 317 0
-670 45 0
671 -950 -669 0
-671 950 0
-671 669 0
672 -709 -1 0
-672 709 0
-672 1 0
673 -672 -25 0
-673 672 0
-673 25 0
674 -951 -671 0
-674 951 0
-674 671 0
675 -726 -30 0
-675 726 0
-675 30 0
676 -675 -750 0
-676 675 0
-676 750 0
677 -952 -674 0
-677 952 0
-677 674 0
678 -741 -727 0
-678 741 0
-678 727 0
679 -678 -17 0
-679 678 0
-679 17 0
680 -953 -677 0
-680 953 0
-680 677 0
681 -48 -1 0
-681 48 0
-681 1 0
682 -681 -726 0
-682 681 0
-682 726 0
683 -954 -680 0
-683 954 0
-683 680 0
684 -701 -771 0
-684 701 0
-684 771 0
685 -684 -702 0
-685 684 0
-685 702 0
686 -955 -683 0
-686 955 0
-686 683 0
687 -741 -19 0
-687 741 0
-687 19 0
688 -687 -745 0
-688 687 0
-688 745 0
689 -956 -686 0
-689 956 0
-689 686 0
-690 -2 0
690 2 0
-691 -1 0
691 1 0
-692 -54 0
692 54 0
-693 -52 0
693 52 0
-694 -9 0
694 9 0
-695 -57 0
695 57 0
-696 -11 0
696 11 0
-697 -60 0
697 60 0
-698 -12 0
698 12 0
-699 -63 0
699 63 0
-700 -16 0
700 16 0
-701 -15 0
701 15 0
-702 -17 0
702 17 0
-703 -66 0
703 66 0
-704 -69 0
704 69 0
-705 -72 0
705 72 0
-706 -75 0
706 75 0
-707 -25 0
707 25 0
-708 -78 0
708 78 0
-709 -18 0
709 18 0
-710 -81 0
710 81 0
-711 -84 0
711 84 0
-712 -87 0
712 87 0
-713 -22 0
713 22 0
-714 -29 0
714 29 0
-715 -90 0
715 90 0
-716 -31 0
716 31 0
-717 -93 0
717 93 0
-718 -33 0
718 33 0
-719 -27 0
719 27 0
-720 -96 0
720 96 0
-721 -21 0
721 21 0
-722 -99 0
722 99 0
-723 -34 0
723 34 0
-724 -6 0
724 6 0
-725 -102 0
725 102 0
-726 -35 0
726 35 0
-727 -13 0
727 13 0
-728 -105 0
728 105 0
-729 -108 0
729 108 0
-730 -111 0
730 111 0
-731 -20 0
731 20 0
-732 -39 0
732 39 0
-733 -114 0
733 114 0
-734 -23 0
734 23 0
-735 -117 0
735 117 0
-736 -40 0
736 40 0
-737 -120 0
737 120 0
-738 -123 0
738 123 0
-739 -42 0
739 42 0
-740 -126 0
740 126 0
-741 -43 0
741 43 0
-742 -30 0
742 30 0
-743 -129 0
743 129 0
-744 -41 0
744 41 0
-745 -32 0
745 32 0
-746 -132 0
746 132 0
-747 -135 0
747 135 0
-748 -26 0
748 26 0
-749 -138 0
749 138 0
-750 -45 0
750 45 0
-751 -141 0
751 141 0
-752 -5 0
752 5 0
-753 -144 0
753 144 0
-754 -147 0
754 147 0
-755 -150 0
755 150 0
-756 -44 0
756 44 0
-757 -152 0
757 152 0
-758 -155 0
758 155 0
-759 -3 0
759 3 0
-760 -158 0
760 158 0
-761 -161 0
761 161 0
-762 -164 0
762 164 0
-763 -4 0
763 4 0
-764 -167 0
764 167 0
-765 -10 0
765 10 0
-766 -170 0
766 170 0
-767 -173 0
767 173 0
-768 -38 0
768 38 0
-769 -176 0
769 176 0
-770 -179 0
770 179 0
-771 -7 0
771 7 0
-772 -182 0
772 182 0
-773 -185 0
773 185 0
-774 -188 0
774 188 0
-775 -49 0
775 49 0
-776 -191 0
776 191 0
-777 -194 0
777 194 0
-778 -197 0
778 197 0
-779 -200 0
779 200 0
-780 -203 0
780 203 0
-781 -206 0
781 206 0
-782 -24 0
782 24 0
-783 -209 0
783 209 0
-784 -47 0
784 47 0
-785 -212 0
785 212 0
-786 -215 0
786 215 0
-787 -218 0
787 218 0
-788 -221 0
788 221 0
-789 -224 0
789 224 0
-790 -227 0
790 227 0
-791 -230 0
791 230 0
-792 -233 0
792 233 0
-793 -236 0
793 236 0
-794 -8 0
794 8 0
-795 -239 0
795 239 0
-796 -14 0
796 14 0
-797 -242 0
797 242 0
-798 -244 0
798 244 0
-799 -247 0
799 247 0
-800 -250 0
800 250 0
-801 -253 0
801 253 0
-802 -256 0
802 256 0
-803 -259 0
803 259 0
-804 -50 0
804 50 0
-805 -28 0
805 28 0
-806 -262 0
806 262 0
-807 -265 0
807 265 0
-808 -268 0
808 268 0
-809 -271 0
809 271 0
-810 -274 0
810 274 0
-811 -276 0
811 276 0
-812 -279 0
812 279 0
-813 -282 0
813 282 0
-814 -37 0
814 37 0
-815 -285 0
815 285 0
-816 -288 0
816 288 0
-817 -291 0
817 291 0
-818 -294 0
818 294 0
-819 -297 0
819 297 0
-820 -300 0
820 300 0
-821 -46 0
821 46 0
-822 -303 0
822 303 0
-823 -306 0
823 306 0
-824 -309 0
824 309 0
-825 -312 0
825 312 0
-826 -315 0
826 315 0
-827 -318 0
827 318 0
-828 -321 0
828 321 0
-829 -324 0
829 324 0
-830 -327 0
830 327 0
-831 -330 0
831 330 0
-832 -333 0
832 333 0
-833 -335 0
833 335 0
-834 -338 0
834 338 0
-835 -341 0
835 341 0
-836 -344 0
836 344 0
-837 -347 0
837 347 0
-838 -350 0
838 350 0
-839 -353 0
839 353 0
-840 -48 0
840 48 0
-841 -356 0
841 356 0
-842 -359 0
842 359 0
-843 -362 0
843 362 0
-844 -365 0
844 365 0
-845 -36 0
845 36 0
-846 -368 0
846 368 0
-847 -371 0
847 371 0
-848 -374 0
848 374 0
-849 -377 0
849 377 0
-850 -380 0
850 380 0
-851 -383 0
851 383 0
-852 -386 0
852 386 0
-853 -389 0
853 389 0
-854 -392 0
854 392 0
-855 -395 0
855 395 0
-856 -398 0
856 398 0
-857 -401 0
857 401 0
-858 -404 0
858 404 0
-859 -407 0
859 407 0
-860 -410 0
860 410 0
-861 -413 0
861 413 0
-862 -416 0
862 416 0
-863 -418 0
863 418 0
-864 -421 0
864 421 0
-865 -424 0
865 424 0
-866 -427 0
866 427 0
-867 -430 0
867 430 0
-868 -433 0
868 433 0
-869 -436 0
869 436 0
-870 -439 0
870 439 0
-871 -442 0
871 442 0
-872 -445 0
872 445 0
-873 -448 0
873 448 0
-874 -451 0
874 451 0
-875 -454 0
875 454 0
-876 -19 0
876 19 0
-877 -457 0
877 457 0
-878 -460 0
878 460 0
-879 -463 0
879 463 0
-880 -466 0
880 466 0
-881 -469 0
881 469 0
-882 -472 0
882 472 0
-883 -475 0
883 475 0
-884 -478 0
884 478 0
-885 -481 0
885 481 0
-886 -483 0
886 483 0
-887 -486 0
887 486 0
-888 -489 0
888 489 0
-889 -492 0
889 492 0
-890 -495 0
890 495 0
-891 -498 0
891 498 0
-892 -501 0
892 501 0
-893 -504 0
893 504 0
-894 -507 0
894 507 0
-895 -510 0
895 510 0
-896 -513 0
896 513 0
-897 -516 0
897 516 0
-898 -519 0
898 519 0
-899 -522 0
899 522 0
-900 -525 0
900 525 0
-901 -528 0
901 528 0
-902 -531 0
902 531 0
-903 -534 0
903 534 0
-904 -537 0
904 537 0
-905 -540 0
905 540 0
-906 -543 0
906 543 0
-907 -546 0
907 546 0
-908 -549 0
908 549 0
-909 -552 0
909 552 0
-910 -555 0
910 555 0
-911 -558 0
911 558 0
-912 -560 0
912 560 0
-913 -563 0
913 563 0
-914 -566 0
914 566 0
-915 -569 0
915 569 0
-916 -572 0
916 572 0
-917 -575 0
917 575 0
-918 -578 0
918 578 0
-919 -581 0
919 581 0
-920 -584 0
920 584 0
-921 -587 0
921 587 0
-922 -590 0
922 590 0
-923 -593 0
923 593 0
-924 -596 0
924 596 0
-925 -599 0
925 599 0
-926 -602 0
926 602 0
-927 -605 0
927 605 0
-928 -608 0
928 608 0
-929 -611 0
929 611 0
-930 -614 0
930 614 0
-931 -617 0
931 617 0
-932 -620 0
932 620 0
-933 -623 0
933 623 0
-934 -626 0
934 626 0
-935 -629 0
935 629 0
-936 -632 0
936 632 0
-937 -634 0
937 634 0
-938 -637 0
938 637 0
-939 -639 0
939 639 0
-940 -642 0
940 642 0
-941 -645 0
941 645 0
-942 -648 0
942 648 0
-943 -650 0
943 650 0
-944 -653 0
944 653 0
-945 -656 0
945 656 0
-946 -659 0
946 659 0
-947 -662 0
947 662 0
-948 -665 0
948 665 0
-949 -668 0
949 668 0
-950 -670 0
950 670 0
-951 -673 0
951 673 0
-952 -676 0
952 676 0
-953 -679 0
953 679 0
-954 -682 0
954 682 0
-955 -685 0
955 685 0
-956 -688 0
956 688 0
689 0
